Version identifier: 20.1.0.0 | 2020-11-10 | 9bedb6d68
Tried aggregator 2 times.
MIP Presolve eliminated 694 rows and 409 columns.
MIP Presolve modified 1297 coefficients.
Aggregator did 74 substitutions.
Reduced MIP has 513 rows, 424 columns, and 1618 nonzeros.
Reduced MIP has 115 binaries, 309 generals, 0 SOSs, and 0 indicators.
Presolve time = 0.01 sec. (2.71 ticks)
Found incumbent of value 514.000000 after 0.01 sec. (4.20 ticks)
Probing fixed 15 vars, tightened 130 bounds.
Probing time = 0.00 sec. (0.36 ticks)
Tried aggregator 2 times.
MIP Presolve eliminated 224 rows and 34 columns.
MIP Presolve modified 51 coefficients.
Aggregator did 13 substitutions.
Reduced MIP has 276 rows, 377 columns, and 892 nonzeros.
Reduced MIP has 164 binaries, 213 generals, 0 SOSs, and 0 indicators.
Presolve time = 0.00 sec. (1.18 ticks)
Probing time = 0.00 sec. (0.09 ticks)
Tried aggregator 1 time.
Detecting symmetries...
MIP Presolve modified 84 coefficients.
Reduced MIP has 276 rows, 377 columns, and 892 nonzeros.
Reduced MIP has 164 binaries, 213 generals, 0 SOSs, and 0 indicators.
Presolve time = 0.00 sec. (0.70 ticks)
Probing time = 0.00 sec. (0.09 ticks)
Clique table members: 31.
MIP emphasis: balance optimality and feasibility.
MIP search method: dynamic search.
Parallel mode: deterministic, using up to 24 threads.
Root relaxation solution time = 0.00 sec. (0.77 ticks)

        Nodes                                         Cuts/
   Node  Left     Objective  IInf  Best Integer    Best Bound    ItCnt     Gap

*     0+    0                          514.0000        0.0000           100.00%
*     0+    0                           14.0000        0.0000           100.00%
      0     0        0.3333    37       14.0000        0.3333      113   97.62%
      0     0        1.6429    40       14.0000      Cuts: 47      201   88.27%
*     0+    0                            8.0000        1.6429            79.46%
      0     0        2.1429   112        8.0000      Cuts: 57      257   73.21%
*     0+    0                            6.0000        2.1429            64.29%
      0     0        2.5200   140        6.0000      Cuts: 32      339   58.00%
      0     0        2.5455   134        6.0000      Cuts: 32      361   57.58%
      0     0        2.5455   137        6.0000      Cuts: 21      381   57.58%
      0     0        2.5455    97        6.0000  ZeroHalf: 28      387   57.58%
      0     0        2.5455   113        6.0000      Cuts: 31      420   57.58%
*     0+    0                            5.0000        2.5455            49.09%
      0     0        cutoff              5.0000        5.0000      420    0.00%
Elapsed time = 0.86 sec. (38.49 ticks, tree = 0.01 MB, solutions = 5)

Cover cuts applied:  2
Implied bound cuts applied:  13
Flow cuts applied:  2
Mixed integer rounding cuts applied:  9
Zero-half cuts applied:  33
Lift and project cuts applied:  2
Gomory fractional cuts applied:  3

Root node processing (before b&c):
  Real time             =    0.86 sec. (38.55 ticks)
Parallel b&c, 24 threads:
  Real time             =    0.00 sec. (0.00 ticks)
  Sync time (average)   =    0.00 sec.
  Wait time (average)   =    0.00 sec.
                          ------------
Total (root+branch&cut) =    0.86 sec. (38.55 ticks)

Solution status = Optimal
Solution LB = 5
Solution UB = 5
Runtime = 0.863946 seconds
	Command being timed: "/home/min/git_repos/CS598MEBProject/CNT-ILP/build/cnt -s 2 ./output/k6_n15/simC_c1_k6_n15_u1_s1_del02.input-right.cnp"
	User time (seconds): 15.49
	System time (seconds): 0.01
	Percent of CPU this job got: 1769%
	Elapsed (wall clock) time (h:mm:ss or m:ss): 0:00.87
	Average shared text size (kbytes): 0
	Average unshared data size (kbytes): 0
	Average stack size (kbytes): 0
	Average total size (kbytes): 0
	Maximum resident set size (kbytes): 45108
	Average resident set size (kbytes): 0
	Major (requiring I/O) page faults: 0
	Minor (reclaiming a frame) page faults: 8258
	Voluntary context switches: 1580
	Involuntary context switches: 2316
	Swaps: 0
	File system inputs: 0
	File system outputs: 16
	Socket messages sent: 0
	Socket messages received: 0
	Signals delivered: 0
	Page size (bytes): 4096
	Exit status: 0
